WARNING: for repeatability, setting FPU to use double precision
============================[ Problem Statistics ]=============================
|                                                                             |
|  Number of variables:            50                                         |
|  Number of clauses:             218                                         |
|  Parse time:                   0.00 s                                       |
|                                                                             |
============================[ Search Statistics ]==============================
| Conflicts |          ORIGINAL         |          LEARNT          | Progress |
|           |    Vars  Clauses Literals |    Limit  Clauses Lit/Cl |          |
===============================================================================
===============================================================================
restarts              : 1
conflicts             : 59             (36086 /sec)
decisions             : 75             (0.00 % random) (45872 /sec)
propagations          : 853            (521713 /sec)
conflict literals     : 196            (23.44 % deleted)
Memory used           : 20.00 MB
CPU time              : 0.001635 s

UNSATISFIABLE
